
Gurobi 6.5.1 (win64) logging started 05/23/16 12:50:38

Parameter OutputFlag unchanged
   Value: 1  Min: 0  Max: 1  Default: 1
Changed value of parameter Threads to 12
   Prev: 0  Min: 0  Max: 1024  Default: 0
Optimize a model with 3809 rows, 2606 columns and 10409 nonzeros
Coefficient statistics:
  Matrix range    [1e-03, 1e+07]
  Objective range [1e+00, 1e+00]
  Bounds range    [1e+00, 1e+00]
  RHS range       [2e+01, 1e+07]
Presolve removed 3 rows and 2 columns
Presolve time: 0.11s
Presolved: 3806 rows, 2604 columns, 10402 nonzeros

Warning: Thread count (12) is larger than core count (2)
         Reduce the value of the Threads parameter to improve performance

Variable types: 1402 continuous, 1202 integer (1202 binary)

Root relaxation: objective 0.000000e+00, 1093 iterations, 0.06 seconds

    Nodes    |    Current Node    |     Objective Bounds      |     Work
 Expl Unexpl |  Obj  Depth IntInf | Incumbent    BestBd   Gap | It/Node Time

     0     0    0.00000    0   25          -    0.00000      -     -    1s
     0     0    0.00000    0  325          -    0.00000      -     -    2s
     0     0    0.00000    0  325          -    0.00000      -     -    3s
     0     0    0.07172    0  358          -    0.07172      -     -    5s
     0     0    0.07172    0  497          -    0.07172      -     -    5s
     0     0    0.07172    0  402          -    0.07172      -     -    8s
     0     0    0.07172    0  227          -    0.07172      -     -    9s
     0     2    0.07172    0   86          -    0.07172      -     -   12s
     8    12   20.60000    4  182          -   20.60000      -   859   15s
   233   152   20.60000   20  236          -   20.60000      -   163   21s
   495   272   20.60000   20  207          -   20.60000      -   165   26s
   823   473 infeasible   38               -   20.60000      -   136   33s
   909   464 infeasible   39               -   20.60000      -   135   36s
  1111   551   20.60000   13  206          -   20.60000      -   128   40s
  1692   676 infeasible   36               -   20.60000      -   113   50s
  2409   763   20.60000   27  104          -   20.60000      -   103   60s
  2739   766   20.60000   39  152          -   20.60000      -   104   66s
  3229   748   20.60000   64  139          -   20.60000      -  97.8   72s
  3696   830   20.60000   54  107          -   20.60000      -  96.0   78s
  3998   886   20.60000   64  125          -   20.60000      -  98.5   87s
  4369   925   20.60000   76  150          -   20.60000      -   100   95s
  4742   910 infeasible   80               -   20.60000      -   101  105s
  5161   919   20.60000   72  125          -   20.60000      -   100  113s
  5565   925 infeasible   34               -   20.60000      -   101  122s
  6023   954   20.60000   33  104          -   20.60000      -   102  133s
  6494   984 infeasible   40               -   20.60000      -   103  147s
  6869   987 infeasible   20               -   20.60000      -   106  161s
  7300   967   20.60000   20   83          -   20.60000      -   109  173s
  7782   985 infeasible   14               -   20.60000      -   111  190s
  8427  1042 infeasible   26               -   20.60000      -   113  209s
  9024  1204   20.60000   69  227          -   20.60000      -   114  211s
  9028  1207   20.60000   19   33          -   20.60000      -   114  215s
  9030  1210   20.60000   13  167          -   20.60000      -   1.0  222s
  9031  1211   42.90000   13  331          -   20.60000      -   1.1  225s
  9036  1212   20.60000   16  218          -   20.60000      -   1.5  239s
  9037  1214 infeasible   16               -   20.60000      -   1.5  240s
  9040  1211   20.60000   17  216          -   20.60000      -   1.6  247s
  9170  1168   20.60000   16  329          -   20.60000      -   2.1  264s
  9615  1049 infeasible  117               -   20.60000      -   4.9  286s
  9718  1023   20.60000   22  237          -   20.60000      -   9.2  320s
 11334  1581 infeasible   26               -   20.60000      -  17.8  354s
 11534  1461   20.60000   63  169          -   20.60000      -  23.1  385s
 15461  2983 infeasible   84               -   20.60000      -  35.6  414s
 15694  2901 infeasible   77               -   20.60000      -  40.6  458s
 16622  2971 infeasible   66               -   20.60000      -  45.0  512s
 23141  4335 infeasible   65               -   20.60000      -  45.7  542s
 23397  4132 infeasible   92               -   20.60000      -  47.5  579s
 23611  4044   20.60000   96  214          -   20.60000      -  50.7  629s
 27911  5155   20.60000  150   75          -   20.60000      -  51.9  630s
 28872  5235 infeasible   78               -   20.60000      -  52.2  666s
 29069  5136   20.60000   78  166          -   20.60000      -  54.1  704s
 33931  6239 infeasible   83               -   20.60000      -  53.2  705s
 35562  6387 infeasible  120               -   20.60000      -  53.0  730s
 35767  6166 infeasible   82               -   20.60000      -  54.1  753s
 35999  5918 infeasible  117               -   20.60000      -  55.2  767s
 36247  5733 infeasible  101               -   20.60000      -  56.1  798s
 41101  6788   20.60000   94  227          -   20.60000      -  54.0  872s
 41107  6792   20.60000   82   18          -   20.60000      -  54.0  879s
 41109  6793   20.60000   34   17          -   20.60000      -  54.0  882s
 41110  6794   20.60000   95   18          -   20.60000      -  54.0  886s
 41114  6799   42.90000   27   64          -   20.60000      -  54.2  890s
 41117  6801   20.60000   29  311          -   20.60000      -  54.3  895s
 41118  6801   20.60000   29  160          -   20.60000      -  54.3  900s
 41123  6800   20.60000   31  115          -   20.60000      -  54.3  924s
 41154  6786   20.60000   45  136          -   20.60000      -  54.6  949s
 41736  6856   20.60000   43  132          -   20.60000      -  56.1 1056s
 42110  6554   20.60000   41  112          -   20.60000      -  64.5 1139s
 45944  6805 infeasible  133               -   20.60000      -  77.0 1180s
 46217  6463 infeasible   86               -   20.60000      -  78.2 1223s
 49001  6405 infeasible  117               -   20.60000      -  83.3 1255s
 51283  6469 infeasible  167               -   20.60000      -  86.8 1296s
 51563  6124 infeasible  159               -   20.60000      -  87.7 1326s
 53802  6212 infeasible  157               -   20.60000      -  90.1 1360s
 54059  5873 infeasible  149               -   20.60000      -  89.9 1412s
 54341  5529 infeasible  124               -   20.60000      -  89.7 1432s
 56461  5537 infeasible  167               -   20.60000      -  90.9 1447s
 58158  5443 infeasible  137               -   20.60000      -  91.6 1452s
 58865  5151 infeasible  137               -   20.60000      -  91.5 1466s
 59117  4815 infeasible  167               -   20.60000      -  91.6 1477s
 60295  4608 infeasible  117               -   20.60000      -  91.9 1481s
 60547  4278 infeasible  127               -   20.60000      -  91.5 1499s
 60819  3941 infeasible  156               -   20.60000      -  91.4 1535s
 63680  4832 infeasible  138               -   20.60000      -  93.3 1577s
 63935  4585   20.60000   51   96          -   20.60000      -  93.5 1602s
 66491  5467 infeasible  117               -   20.60000      -  94.9 1614s
 66743  5260   20.60000   80   20          -   20.60000      -  95.1 1669s
 71746  7254 infeasible  149               -   20.60000      -  98.4 1670s
 71753  7134 infeasible   97               -   20.60000      -  98.4 1738s
 71982  6892 infeasible   97               -   20.60000      -  99.0 1784s
 76096  8448 infeasible   77               -   20.60000      -   101 1834s
 76237  8197 infeasible  109               -   20.60000      -   102 1867s
 79124  9139 infeasible  107               -   20.60000      -   103 1915s
 79288  8887 infeasible   80               -   20.60000      -   104 1933s
 81198  9345 infeasible  107               -   20.60000      -   104 1944s
 82567  9544 infeasible  107               -   20.60000      -   104 1957s
 84160  9761   20.60000  109    3          -   20.60000      -   104 1963s
 85065  9777 infeasible  135               -   20.60000      -   104 1965s
 85317  9539 infeasible  135               -   20.60000      -   104 1990s
 85555  9287 infeasible   87               -   20.60000      -   104 2003s
 86975  9518 infeasible   83               -   20.60000      -   104 2014s
 88121  9582 infeasible  117               -   20.60000      -   104 2026s
 88365  9330 infeasible  129               -   20.60000      -   103 2033s
 89255  9282 infeasible   97               -   20.60000      -   103 2039s
 89507  9030 infeasible   78               -   20.60000      -   103 2051s
 91149  9354 infeasible  122               -   20.60000      -   103 2074s
 91358  9102 infeasible  122               -   20.60000      -   103 2085s
 92901  9354 infeasible  117               -   20.60000      -   103 2105s
 93135  9102 infeasible  113               -   20.60000      -   103 2112s
 94053  9101 infeasible  109               -   20.60000      -   103 2120s
 94995  9130 infeasible  107               -   20.60000      -   103 2127s
 95791  9062 infeasible  117               -   20.60000      -   102 2141s
 96043  8817 infeasible   77               -   20.60000      -   102 2164s
 98207  9388 infeasible  112               -   20.60000      -   103 2201s
 98417  9137 infeasible  116               -   20.60000      -   103 2219s
 100329  9541 infeasible  107               -   20.60000      -   103 2233s
 101990  9875 infeasible  113               -   20.60000      -   103 2248s
 102242  9623 infeasible  130               -   20.60000      -   103 2262s
 103723  9895 infeasible  108               -   20.60000      -   104 2275s
 103975  9643   20.60000   87   99          -   20.60000      -   103 2292s
 105108  9746 infeasible  106               -   20.60000      -   103 2299s
 105360  9494 infeasible   93               -   20.60000      -   103 2311s
 106759  9739 infeasible  130               -   20.60000      -   103 2327s
 106998  9487 infeasible  130               -   20.60000      -   103 2331s
 107674  9335 infeasible  116               -   20.60000      -   103 2340s
 107926  9083 infeasible  107               -   20.60000      -   103 2353s
 109436  9372 infeasible  117               -   20.60000      -   103 2391s
 109599  9120 infeasible  108               -   20.60000      -   103 2404s
 110859  9206 infeasible  127               -   20.60000      -   103 2412s
 111803  9217 infeasible   77               -   20.60000      -   103 2417s
 112562  9151 infeasible   70               -   20.60000      -   103 2428s
 113911  8982 infeasible   86               -   20.60000      -   102 2470s
 114133  8730 infeasible   87               -   20.60000      -   103 2481s
 115616  8886 infeasible  127               -   20.60000      -   102 2489s
 116550  8878 infeasible  105               -   20.60000      -   102 2499s
 117580  8871 infeasible   97               -   20.60000      -   102 2509s
 118538  8823 infeasible   97               -   20.60000      -   102 2517s
 118789  8581 infeasible  120               -   20.60000      -   102 2527s
 120068  8632 infeasible   97               -   20.60000      -   102 2536s
 120321  8456 infeasible  105               -   20.60000      -   102 2570s
 120497  8204 infeasible   89               -   20.60000      -   102 2578s
 121547  8177 infeasible   87               -   20.60000      -   102 2586s
 122582  8180 infeasible   77               -   20.60000      -   101 2594s
 123476  8130 infeasible  107               -   20.60000      -   101 2600s
 124378  8110 infeasible  109               -   20.60000      -   101 2610s
 125516  8164 infeasible   77               -   20.60000      -   101 2617s
 126681  7970 infeasible   93               -   20.60000      -   101 2660s
 126836  7718   20.60000   84   49          -   20.60000      -   101 2669s
 128063  7776 infeasible  107               -   20.60000      -   101 2684s
 129660  8014   20.60000   96   23          -   20.60000      -   101 2691s
 131247  7805 infeasible  111               -   20.60000      -   100 2699s
 131993  7735 infeasible  105               -   20.60000      -   100 2704s
 132795  7668 infeasible  107               -   20.60000      -   100 2709s
 133564  7607 infeasible   94               -   20.60000      -   100 2739s
 133777  7355 infeasible   93               -   20.60000      -   100 2748s
 134832  7381 infeasible   81               -   20.60000      -   100 2762s
 136426  7648 infeasible  117               -   20.60000      -   100 2771s
 137558  7376 infeasible   92               -   20.60000      -   100 2777s
 137810  7124 infeasible   97               -   20.60000      -   100 2787s
 138849  7154 infeasible  111               -   20.60000      -   100 2798s
 139094  6902 infeasible  120               -   20.60000      -   100 2806s
 140165  6949 infeasible   97               -   20.60000      -   100 2819s
 140412  6697 infeasible  146               -   20.60000      -   100 2829s
 141810  6879 infeasible  107               -   20.60000      -   100 2849s
 142060  6627 infeasible  116               -   20.60000      -   100 2864s
 143605  6879 infeasible   87               -   20.60000      -   100 2872s
 144849  6654 infeasible   84               -   20.60000      -   100 2880s
 145101  6402 infeasible   60               -   20.60000      -  99.4 2889s
 146453  6593 infeasible   87               -   20.60000      -  99.3 2908s
 146705  6341 infeasible   72               -   20.60000      -   100 2918s
 147946  6443 infeasible   97               -   20.60000      -  99.4 2924s
 148902  6455 infeasible   87               -   20.60000      -  99.3 2925s
 149154  6235 infeasible   92               -   20.60000      -  99.2 2957s
 149374  5983   20.60000   83  106          -   20.60000      -   100 2968s
 151008  6185 infeasible  117               -   20.60000      -  99.4 2981s
 152719  6165 infeasible   91               -   20.60000      -  99.4 2987s
 152971  5925 infeasible   89               -   20.60000      -  99.3 3005s
 153211  5673 infeasible   85               -   20.60000      -  99.2 3016s
 154489  5816 infeasible   90               -   20.60000      -  99.1 3025s
 155690  5982 infeasible   72               -   20.60000      -  99.1 3031s
 155942  5730 infeasible   91               -   20.60000      -  99.0 3036s
 156194  5593 infeasible   75               -   20.60000      -  98.9 3068s
 156331  5341 infeasible  183               -   20.60000      -  99.0 3077s
 157467  5391 infeasible  132               -   20.60000      -  98.9 3086s
 158433  5440   20.60000   78  113          -   20.60000      -  99.0 3096s
 159502  5475 infeasible   77               -   20.60000      -  98.9 3104s
 160323  5394 infeasible   96               -   20.60000      -  98.8 3105s
 160575  5203 infeasible   86               -   20.60000      -  98.6 3135s
 160766  4951 infeasible  128               -   20.60000      -  98.9 3147s
 162126  5299 infeasible  147               -   20.60000      -  98.9 3152s
 162838  5226 infeasible  133               -   20.60000      -  98.8 3157s
 163579  5143 infeasible  121               -   20.60000      -  98.6 3163s
 164337  5033 infeasible  124               -   20.60000      -  98.5 3166s
 164589  4781 infeasible  155               -   20.60000      -  98.4 3171s
 164841  4567 infeasible   82               -   20.60000      -  98.3 3195s
 166567  5102 infeasible   46               -   20.60000      -  99.2 3209s
 166814  4868 infeasible   67               -   20.60000      -  99.1 3228s
 167055  4629 infeasible  150               -   20.60000      -  99.5 3244s
 167294  4441 infeasible  157               -   20.60000      -  99.4 3293s
 167482  4245 infeasible  151               -   20.60000      -  99.4 3311s
 168736  4546 infeasible  120               -   20.60000      -   100 3319s
 169623  4638 infeasible  137               -   20.60000      -   100 3328s
 170271  4605 infeasible  157               -   20.60000      -   100 3333s
 170781  4492 infeasible  156               -   20.60000      -   100 3341s
 172029  4386 infeasible  195               -   20.60000      -  99.3 3348s
 172600  4291 infeasible  187               -   20.60000      -  99.3 3352s
 172852  4042 infeasible  158               -   20.60000      -  99.3 3359s
 173101  3858 infeasible   99               -   20.60000      -  99.2 3376s
 173314  3637 infeasible  139               -   20.60000      -  99.2 3387s
 174324  3806 infeasible  138               -   20.60000      -  99.2 3399s
 174915  3775 infeasible  121               -   20.60000      -  99.3 3412s
 175147  3518 infeasible  134               -   20.60000      -  99.2 3420s
 176117  3637 infeasible  183               -   20.60000      -  99.2 3426s
 176755  3574 infeasible  157               -   20.60000      -  99.2 3430s
 177007  3322 infeasible   58               -   20.60000      -  99.1 3438s
 177967  3433 infeasible  127               -   20.60000      -  99.1 3444s
 178214  3190 infeasible  125               -   20.60000      -  99.0 3453s
 178466  2939 infeasible  155               -   20.60000      -  98.9 3458s
 178718  2696   20.60000  103   83          -   20.60000      -  98.9 3475s
 180368  3115 infeasible   87               -   20.60000      -  99.1 3481s
 180881  2612 infeasible  148               -   20.60000      -  98.9 3494s
 181132  2362 infeasible  133               -   20.60000      -  98.9 3509s
 181386  2225 infeasible  107               -   20.60000      -  99.0 3530s
 182786  2644 infeasible  127               -   20.60000      -  99.4 3535s
 183043  2404 infeasible  109               -   20.60000      -  99.3 3540s
 183294  2234 infeasible   84               -   20.60000      -  99.4 3566s
 183494  2053 infeasible   56               -   20.60000      -  99.4 3581s
 183972  1989 infeasible   97               -   20.60000      -   100 3598s
 185290  2237 infeasible   58               -   20.60000      -   100 3609s
 185505  2091 infeasible   99               -   20.60000      -   100 3631s
 185678  1929 infeasible  113               -   20.60000      -   100 3653s
 187079  2239 infeasible   57               -   20.60000      -   101 3670s
 187320  2034   20.60000   65   94          -   20.60000      -   101 3684s
 188323  2146 infeasible  137               -   20.60000      -   101 3695s
 188558  1964 infeasible   69               -   20.60000      -   101 3711s
 188762  1764   20.60000   38   24          -   20.60000      -   101 3728s
 190155  2094 infeasible  108               -   20.60000      -   102 3742s
 190366  1872 infeasible  141               -   20.60000      -   102 3751s
 190627  1664 infeasible   92               -   20.60000      -   102 3766s
 191673  1760 infeasible  157               -   20.60000      -   102 3775s
 191916  1544 infeasible   62               -   20.60000      -   102 3790s
 192145  1335 infeasible  114               -   20.60000      -   102 3805s
 193101  1552 infeasible  168               -   20.60000      -   103 3832s
 193317  1424 infeasible  185               -   20.60000      -   103 3854s
 194663  1886 infeasible  147               -   20.60000      -   103 3884s
*194711    25             114      20.6000000   20.60000  0.00%   103 3884s

Cutting planes:
  Learned: 1
  Gomory: 4
  Implied bound: 4
  Clique: 25
  MIR: 16
  Flow cover: 38

Explored 194900 nodes (21175416 simplex iterations) in 3884.72 seconds
Thread count was 12 (of 2 available processors)

Optimal solution found (tolerance 1.00e-04)
Best objective 2.059999999963e+01, best bound 2.059999999963e+01, gap 0.0%
Parameter OutputFlag unchanged
   Value: 1  Min: 0  Max: 1  Default: 1
Changed value of parameter Threads to 16
   Prev: 0  Min: 0  Max: 1024  Default: 0
Optimize a model with 5012 rows, 3408 columns and 13812 nonzeros
Coefficient statistics:
  Matrix range    [1e-03, 1e+07]
  Objective range [1e+00, 1e+00]
  Bounds range    [1e+00, 1e+00]
  RHS range       [2e+01, 1e+07]
Presolve time: 0.12s
Presolved: 5012 rows, 3408 columns, 13812 nonzeros

Warning: Thread count (16) is larger than core count (2)
         Reduce the value of the Threads parameter to improve performance

Variable types: 1804 continuous, 1604 integer (1604 binary)

Root relaxation: objective 0.000000e+00, 1416 iterations, 0.09 seconds

    Nodes    |    Current Node    |     Objective Bounds      |     Work
 Expl Unexpl |  Obj  Depth IntInf | Incumbent    BestBd   Gap | It/Node Time

     0     0    0.00000    0   56          -    0.00000      -     -    1s
     0     0    0.00000    0  281          -    0.00000      -     -    2s
     0     0    0.00000    0  297          -    0.00000      -     -    3s
H    0     0                       0.0000000    0.00000  0.00%     -    3s

Cutting planes:
  Gomory: 6
  Cover: 220
  Implied bound: 59
  Clique: 659
  MIR: 81
  Flow cover: 465

Explored 0 nodes (11688 simplex iterations) in 3.46 seconds
Thread count was 16 (of 2 available processors)

Optimal solution found (tolerance 1.00e-04)
Best objective 0.000000000000e+00, best bound 0.000000000000e+00, gap 0.0%
Parameter OutputFlag unchanged
   Value: 1  Min: 0  Max: 1  Default: 1
Changed value of parameter Threads to 12
   Prev: 0  Min: 0  Max: 1024  Default: 0
Optimize a model with 5012 rows, 3408 columns and 13812 nonzeros
Coefficient statistics:
  Matrix range    [1e-03, 1e+07]
  Objective range [1e+00, 1e+00]
  Bounds range    [1e+00, 1e+00]
  RHS range       [2e+01, 1e+07]
Presolve time: 0.11s
Presolved: 5012 rows, 3408 columns, 13812 nonzeros

Warning: Thread count (12) is larger than core count (2)
         Reduce the value of the Threads parameter to improve performance

Variable types: 1804 continuous, 1604 integer (1604 binary)

Root relaxation: objective 0.000000e+00, 1416 iterations, 0.13 seconds

    Nodes    |    Current Node    |     Objective Bounds      |     Work
 Expl Unexpl |  Obj  Depth IntInf | Incumbent    BestBd   Gap | It/Node Time

     0     0    0.00000    0   56          -    0.00000      -     -    1s
     0     0    0.00000    0  281          -    0.00000      -     -    2s
     0     0    0.00000    0  297          -    0.00000      -     -    3s
H    0     0                       0.0000000    0.00000  0.00%     -    3s

Cutting planes:
  Gomory: 6
  Cover: 220
  Implied bound: 59
  Clique: 659
  MIR: 81
  Flow cover: 465

Explored 0 nodes (11688 simplex iterations) in 3.34 seconds
Thread count was 12 (of 2 available processors)

Optimal solution found (tolerance 1.00e-04)
Best objective 0.000000000000e+00, best bound 0.000000000000e+00, gap 0.0%

Gurobi 6.5.1 (win64) logging started 05/25/16 16:06:26

Parameter OutputFlag unchanged
   Value: 1  Min: 0  Max: 1  Default: 1
Changed value of parameter Threads to 12
   Prev: 0  Min: 0  Max: 1024  Default: 0
Optimize a model with 3809 rows, 2606 columns and 10409 nonzeros
Coefficient statistics:
  Matrix range    [1e-03, 1e+07]
  Objective range [1e+00, 1e+00]
  Bounds range    [1e+00, 1e+00]
  RHS range       [2e+01, 1e+07]
Presolve removed 3 rows and 2 columns
Presolve time: 0.36s
Presolved: 3806 rows, 2604 columns, 10402 nonzeros

Warning: Thread count (12) is larger than core count (2)
         Reduce the value of the Threads parameter to improve performance

Variable types: 1402 continuous, 1202 integer (1202 binary)

Root relaxation: objective 0.000000e+00, 1093 iterations, 0.22 seconds

    Nodes    |    Current Node    |     Objective Bounds      |     Work
 Expl Unexpl |  Obj  Depth IntInf | Incumbent    BestBd   Gap | It/Node Time

     0     0    0.00000    0   25          -    0.00000      -     -    2s
     0     0    0.00000    0  325          -    0.00000      -     -    3s
     0     0    0.00000    0  325          -    0.00000      -     -    5s
     0     0    0.07172    0  358          -    0.07172      -     -    5s
     0     0    0.07172    0  497          -    0.07172      -     -    6s
     0     0    0.07172    0  402          -    0.07172      -     -    7s
     0     0    0.07172    0  227          -    0.07172      -     -    8s
     0     2    0.07172    0   86          -    0.07172      -     -   11s
    29    45   20.60000   11  174          -   20.60000      -   286   15s
   233   152   20.60000   20  236          -   20.60000      -   163   20s
   638   370   20.60000   24  112          -   20.60000      -   151   27s
   823   473 infeasible   38               -   20.60000      -   136   31s
  1111   551   20.60000   13  206          -   20.60000      -   128   37s
  1327   613 infeasible   31               -   20.60000      -   125   40s
  1692   676 infeasible   36               -   20.60000      -   113   45s
  1999   713   20.60000   26  156          -   20.60000      -   110   50s
  2409   763   20.60000   27  104          -   20.60000      -   103   55s
  2739   766   20.60000   39  152          -   20.60000      -   104   61s
  3229   748   20.60000   64  139          -   20.60000      -  97.8   66s
  3696   830   20.60000   54  107          -   20.60000      -  96.0   73s
  3998   886   20.60000   64  125          -   20.60000      -  98.5   81s
  4369   925   20.60000   76  150          -   20.60000      -   100   90s
  4742   910 infeasible   80               -   20.60000      -   101  101s
  5161   919   20.60000   72  125          -   20.60000      -   100  111s
  5565   925 infeasible   34               -   20.60000      -   101  123s
  6023   954   20.60000   33  104          -   20.60000      -   102  135s
  6494   984 infeasible   40               -   20.60000      -   103  149s
  6869   987 infeasible   20               -   20.60000      -   106  167s
  7300   967   20.60000   20   83          -   20.60000      -   109  181s
  7782   985 infeasible   14               -   20.60000      -   111  199s
  8427  1042 infeasible   26               -   20.60000      -   113  219s
  8915  1174   20.60000    6  361          -   20.60000      -   113  220s
  9027  1206   20.60000   54  154          -   20.60000      -   114  225s
  9030  1210   20.60000   13  167          -   20.60000      -   1.0  234s
  9031  1211   42.90000   13  331          -   20.60000      -   1.1  236s
  9033  1212   79.00000   14  355          -   20.60000      -   1.2  240s
  9036  1212   20.60000   16  218          -   20.60000      -   1.5  252s
  9040  1211   20.60000   17  216          -   20.60000      -   1.6  257s
  9170  1168   20.60000   16  329          -   20.60000      -   2.1  269s
  9615  1049 infeasible  117               -   20.60000      -   4.9  295s
  9718  1023   20.60000   22  237          -   20.60000      -   9.2  319s
 11334  1581 infeasible   26               -   20.60000      -  17.8  351s
 11534  1461   20.60000   63  169          -   20.60000      -  23.1  385s
 15461  2983 infeasible   84               -   20.60000      -  35.6  419s
 15694  2901 infeasible   77               -   20.60000      -  40.6  468s
 16622  2971 infeasible   66               -   20.60000      -  45.0  527s
 23141  4335 infeasible   65               -   20.60000      -  45.7  562s
 23397  4132 infeasible   92               -   20.60000      -  47.5  599s
 23575  4133 infeasible   64               -   20.60000      -  50.0  600s
 23611  4044   20.60000   96  214          -   20.60000      -  50.7  648s
 28872  5235 infeasible   78               -   20.60000      -  52.2  691s
 29069  5136   20.60000   78  166          -   20.60000      -  54.1  736s
 35562  6387 infeasible  120               -   20.60000      -  53.0  767s
 35767  6166 infeasible   82               -   20.60000      -  54.1  787s
 35999  5918 infeasible  117               -   20.60000      -  55.2  808s
